1 9
2 9
3 3
4 11
5 12
6 12
7 12
8 12
9 8
10 10
11 1
12 12
13 10
14 8
15 1
16 12
17 2
18 13
19 2
20 9
21 4
22 13
23 4
24 2
25 13
26 1
27 3
28 4
29 4
30 4
31 4
32 8
33 8
34 4
35 1
36 10
37 8
38 4
39 2
40 4
41 1
42 2
43 2
44 2
45 1
46 9
47 9
48 5
49 4
50 1
51 12
52 12
53 4
54 1
55 12
56 4
57 10
58 5
59 9
60 13
61 13
62 1
63 4
64 13
65 9
66 2
67 4
68 2
69 2
70 2
71 7
72 12
73 10
74 10
75 10
76 10
77 12
78 1
79 4
80 10
81 8
82 4
83 12
84 4
85 1
86 4
87 9
88 4
89 9
90 9
91 9
92 4
93 4
94 2
95 8
96 8
97 6
98 5
99 5
100 8
101 5
102 5
103 13
104 13
105 13
106 13
107 7
108 7
109 1
110 1
111 1
112 10
113 8
114 10
115 1
116 12
117 10
118 8
119 1
120 13
121 1
122 1
123 2
124 13
125 1
126 1
127 13
128 1
129 13
130 5
131 3
132 6
133 8
134 7
135 11
136 10
137 3
138 2
139 6
